p cnf 866
-16 -268
-17 -271
-18 -274
-19 -277
-20 -280
-21 -283
-22 -286
-23 -289
-24 -292
-25 -295
-26 -298
-27 -301
-28 -304
-29 -307
-30 -310
-31 311
-32 312
-33 313
-34 314
-35 -17
-35 -18
17 18 35
-36 -19
-36 -20
19 20 36
-37 -21
-37 -22
21 22 37
-38 -23
-38 -24
23 24 38
-39 -25
-39 -26
25 26 39
-40 -27
-40 -28
27 28 40
-41 -29
-41 -30
29 30 41
-42 -31
-42 -32
31 32 42
-43 -33
-43 -34
33 34 43
-44 35
-44 36
-35 -36 44
-45 37
-45 38
-37 -38 45
-46 39
-46 40
-39 -40 46
-47 41
-47 42
-41 -42 47
-48 44
-48 45
-44 -45 48
-49 46
-49 47
-46 -47 49
-50 48
-50 49
-48 -49 50
-51 43
-51 50
-43 -50 51
-52 -16
-52 17
16 -17 52
-53 16
-53 -17
-16 17 53
-54 -52
-54 -53
52 53 54
-55 16
-55 17
-16 -17 55
-56 -16
-56 -54
16 54 56
-57 16
-57 54
-16 -54 57
-58 -56
-58 -57
56 57 58
-59 16
-59 -54
-16 54 59
-60 -55
-60 -59
55 59 60
-61 -17
-61 18
17 -18 61
-62 17
-62 -18
-17 18 62
-63 -61
-63 -62
61 62 63
-64 17
-64 18
-17 -18 64
-65 60
-65 -63
-60 63 65
-66 -60
-66 63
60 -63 66
-67 -65
-67 -66
65 66 67
-68 -60
-68 -63
60 63 68
-69 -64
-69 -68
64 68 69
-70 -18
-70 19
18 -19 70
-71 18
-71 -19
-18 19 71
-72 -70
-72 -71
70 71 72
-73 18
-73 19
-18 -19 73
-74 69
-74 -72
-69 72 74
-75 -69
-75 72
69 -72 75
-76 -74
-76 -75
74 75 76
-77 -69
-77 -72
69 72 77
-78 -73
-78 -77
73 77 78
-79 -19
-79 20
19 -20 79
-80 19
-80 -20
-19 20 80
-81 -79
-81 -80
79 80 81
-82 19
-82 20
-19 -20 82
-83 78
-83 -81
-78 81 83
-84 -78
-84 81
78 -81 84
-85 -83
-85 -84
83 84 85
-86 -78
-86 -81
78 81 86
-87 -82
-87 -86
82 86 87
-88 -20
-88 21
20 -21 88
-89 20
-89 -21
-20 21 89
-90 -88
-90 -89
88 89 90
-91 20
-91 21
-20 -21 91
-92 87
-92 -90
-87 90 92
-93 -87
-93 90
87 -90 93
-94 -92
-94 -93
92 93 94
-95 -87
-95 -90
87 90 95
-96 -91
-96 -95
91 95 96
-97 -21
-97 22
21 -22 97
-98 21
-98 -22
-21 22 98
-99 -97
-99 -98
97 98 99
-100 21
-100 22
-21 -22 100
-101 96
-101 -99
-96 99 101
-102 -96
-102 99
96 -99 102
-103 -101
-103 -102
101 102 103
-104 -96
-104 -99
96 99 104
-105 -100
-105 -104
100 104 105
-106 -22
-106 23
22 -23 106
-107 22
-107 -23
-22 23 107
-108 -106
-108 -107
106 107 108
-109 22
-109 23
-22 -23 109
-110 105
-110 -108
-105 108 110
-111 -105
-111 108
105 -108 111
-112 -110
-112 -111
110 111 112
-113 -105
-113 -108
105 108 113
-114 -109
-114 -113
109 113 114
-115 -23
-115 24
23 -24 115
-116 23
-116 -24
-23 24 116
-117 -115
-117 -116
115 116 117
-118 23
-118 24
-23 -24 118
-119 114
-119 -117
-114 117 119
-120 -114
-120 117
114 -117 120
-121 -119
-121 -120
119 120 121
-122 -114
-122 -117
114 117 122
-123 -118
-123 -122
118 122 123
-124 -24
-124 25
24 -25 124
-125 24
-125 -25
-24 25 125
-126 -124
-126 -125
124 125 126
-127 24
-127 25
-24 -25 127
-128 123
-128 -126
-123 126 128
-129 -123
-129 126
123 -126 129
-130 -128
-130 -129
128 129 130
-131 -123
-131 -126
123 126 131
-132 -127
-132 -131
127 131 132
-133 -25
-133 26
25 -26 133
-134 25
-134 -26
-25 26 134
-135 -133
-135 -134
133 134 135
-136 25
-136 26
-25 -26 136
-137 132
-137 -135
-132 135 137
-138 -132
-138 135
132 -135 138
-139 -137
-139 -138
137 138 139
-140 -132
-140 -135
132 135 140
-141 -136
-141 -140
136 140 141
-142 -26
-142 27
26 -27 142
-143 26
-143 -27
-26 27 143
-144 -142
-144 -143
142 143 144
-145 26
-145 27
-26 -27 145
-146 141
-146 -144
-141 144 146
-147 -141
-147 144
141 -144 147
-148 -146
-148 -147
146 147 148
-149 -141
-149 -144
141 144 149
-150 -145
-150 -149
145 149 150
-151 -27
-151 28
27 -28 151
-152 27
-152 -28
-27 28 152
-153 -151
-153 -152
151 152 153
-154 27
-154 28
-27 -28 154
-155 150
-155 -153
-150 153 155
-156 -150
-156 153
150 -153 156
-157 -155
-157 -156
155 156 157
-158 -150
-158 -153
150 153 158
-159 -154
-159 -158
154 158 159
-160 -28
-160 29
28 -29 160
-161 28
-161 -29
-28 29 161
-162 -160
-162 -161
160 161 162
-163 28
-163 29
-28 -29 163
-164 159
-164 -162
-159 162 164
-165 -159
-165 162
159 -162 165
-166 -164
-166 -165
164 165 166
-167 -159
-167 -162
159 162 167
-168 -163
-168 -167
163 167 168
-169 -29
-169 30
29 -30 169
-170 29
-170 -30
-29 30 170
-171 -169
-171 -170
169 170 171
-172 29
-172 30
-29 -30 172
-173 168
-173 -171
-168 171 173
-174 -168
-174 171
168 -171 174
-175 -173
-175 -174
173 174 175
-176 -168
-176 -171
168 171 176
-177 -172
-177 -176
172 176 177
-178 -30
-178 31
30 -31 178
-179 30
-179 -31
-30 31 179
-180 -178
-180 -179
178 179 180
-181 30
-181 31
-30 -31 181
-182 177
-182 -180
-177 180 182
-183 -177
-183 180
177 -180 183
-184 -182
-184 -183
182 183 184
-185 -177
-185 -180
177 180 185
-186 -181
-186 -185
181 185 186
-187 -31
-187 32
31 -32 187
-188 31
-188 -32
-31 32 188
-189 -187
-189 -188
187 188 189
-190 31
-190 32
-31 -32 190
-191 186
-191 -189
-186 189 191
-192 -186
-192 189
186 -189 192
-193 -191
-193 -192
191 192 193
-194 -186
-194 -189
186 189 194
-195 -190
-195 -194
190 194 195
-196 -32
-196 33
32 -33 196
-197 32
-197 -33
-32 33 197
-198 -196
-198 -197
196 197 198
-199 32
-199 33
-32 -33 199
-200 195
-200 -198
-195 198 200
-201 -195
-201 198
195 -198 201
-202 -200
-202 -201
200 201 202
-203 -195
-203 -198
195 198 203
-204 -199
-204 -203
199 203 204
-205 -33
-205 34
33 -34 205
-206 33
-206 -34
-33 34 206
-207 -205
-207 -206
205 206 207
-208 33
-208 34
-33 -34 208
-209 204
-209 -207
-204 207 209
-210 -204
-210 207
204 -207 210
-211 -209
-211 -210
209 210 211
-212 -204
-212 -207
204 207 212
-213 -208
-213 -212
208 212 213
-214 16
-214 -58
-16 58 214
-215 -16
-215 18
16 -18 215
-216 -214
-216 -215
214 215 216
-217 16
-217 -67
-16 67 217
-218 -16
-218 19
16 -19 218
-219 -217
-219 -218
217 218 219
-220 16
-220 -76
-16 76 220
-221 -16
-221 20
16 -20 221
-222 -220
-222 -221
220 221 222
-223 16
-223 -85
-16 85 223
-224 -16
-224 21
16 -21 224
-225 -223
-225 -224
223 224 225
-226 16
-226 -94
-16 94 226
-227 -16
-227 22
16 -22 227
-228 -226
-228 -227
226 227 228
-229 16
-229 -103
-16 103 229
-230 -16
-230 23
16 -23 230
-231 -229
-231 -230
229 230 231
-232 16
-232 -112
-16 112 232
-233 -16
-233 24
16 -24 233
-234 -232
-234 -233
232 233 234
-235 16
-235 -121
-16 121 235
-236 -16
-236 25
16 -25 236
-237 -235
-237 -236
235 236 237
-238 16
-238 -130
-16 130 238
-239 -16
-239 26
16 -26 239
-240 -238
-240 -239
238 239 240
-241 16
-241 -139
-16 139 241
-242 -16
-242 27
16 -27 242
-243 -241
-243 -242
241 242 243
-244 16
-244 -148
-16 148 244
-245 -16
-245 28
16 -28 245
-246 -244
-246 -245
244 245 246
-247 16
-247 -157
-16 157 247
-248 -16
-248 29
16 -29 248
-249 -247
-249 -248
247 248 249
-250 16
-250 -166
-16 166 250
-251 -16
-251 30
16 -30 251
-252 -250
-252 -251
250 251 252
-253 16
-253 -175
-16 175 253
-254 -16
-254 31
16 -31 254
-255 -253
-255 -254
253 254 255
-256 16
-256 -184
-16 184 256
-257 -16
-257 32
16 -32 257
-258 -256
-258 -257
256 257 258
-259 16
-259 -193
-16 193 259
-260 -16
-260 33
16 -33 260
-261 -259
-261 -260
259 260 261
-262 16
-262 -202
-16 202 262
-263 -16
-263 34
16 -34 263
-264 -262
-264 -263
262 263 264
-265 16
-265 -211
-16 211 265
-266 1
-266 51
-1 -51 266
-267 -51
-267 52
51 -52 267
-268 -266
-268 -267
266 267 268
-269 2
-269 51
-2 -51 269
-270 -51
-270 -216
51 216 270
-271 -269
-271 -270
269 270 271
-272 3
-272 51
-3 -51 272
-273 -51
-273 -219
51 219 273
-274 -272
-274 -273
272 273 274
-275 4
-275 51
-4 -51 275
-276 -51
-276 -222
51 222 276
-277 -275
-277 -276
275 276 277
-278 5
-278 51
-5 -51 278
-279 -51
-279 -225
51 225 279
-280 -278
-280 -279
278 279 280
-281 6
-281 51
-6 -51 281
-282 -51
-282 -228
51 228 282
-283 -281
-283 -282
281 282 283
-284 7
-284 51
-7 -51 284
-285 -51
-285 -231
51 231 285
-286 -284
-286 -285
284 285 286
-287 8
-287 51
-8 -51 287
-288 -51
-288 -234
51 234 288
-289 -287
-289 -288
287 288 289
-290 9
-290 51
-9 -51 290
-291 -51
-291 -237
51 237 291
-292 -290
-292 -291
290 291 292
-293 10
-293 51
-10 -51 293
-294 -51
-294 -240
51 240 294
-295 -293
-295 -294
293 294 295
-296 11
-296 51
-11 -51 296
-297 -51
-297 -243
51 243 297
-298 -296
-298 -297
296 297 298
-299 12
-299 51
-12 -51 299
-300 -51
-300 -246
51 246 300
-301 -299
-301 -300
299 300 301
-302 13
-302 51
-13 -51 302
-303 -51
-303 -249
51 249 303
-304 -302
-304 -303
302 303 304
-305 14
-305 51
-14 -51 305
-306 -51
-306 -252
51 252 306
-307 -305
-307 -306
305 306 307
-308 15
-308 51
-15 -51 308
-309 -51
-309 -255
51 255 309
-310 -308
-310 -309
308 309 310
-311 -51
-311 -258
51 258 311
-312 -51
-312 -261
51 261 312
-313 -51
-313 -264
51 264 313
-314 -51
-314 265
51 -265 314
-315 -34
-315 213
34 -213 315
-316 16
-316 -315
-16 315 316
316
